100
1000
366
785
254
337
294
712
483
201
722
428
531
314
164
643
862
823
259
6
58
772
932
596
439
798
528
671
355
208
659
423
369
747
902
870
846
584
213
571
808
908
31
102
165
222
617
687
936
135
993
936
857
689
269
121
631
865
509
523
463
430
933
559
641
964
771
788
383
995
277
194
790
214
265
203
739
376
254
763
622
314
813
600
644
118
597
784
424
389
393
812
733
987
646
621
387
899
227
342
102
745
